(set-info :smt-lib-version 2.6)
(set-logic QF_SLIA)
(set-info :source |
Generated by: Dmitry Blotsky1, Federico Mora, Murphy Berzish, Yunhui Zheng, Ifaz Kabir, Vijay Ganesh, Zhengyang Lu
Generated on: 2018-01-24
Generator: StringFuzz
Application: Evaluate string solvers
Target solver: Z3str3, CVC4, Z3str2, Norn
Publications: Blotsky, D., Mora, F., Berzish, M., Zheng, Y., Kabir, I., & Ganesh, V. (2018). Stringfuzz: A fuzzer for string solvers. In CAV 2018.
Description: transformed by StringFuzz, a modular string and regex fuzzer, from an industrial benchmark
|)
(set-info :license "https://creativecommons.org/licenses/by/4.0/")
(set-info :category "random")
(set-info :status unknown)

(declare-const x String)
(assert (= x "c,'\\t'<:EQ=n8D.s-]h,8$!PCZQXrLQnoi}$HI,E`tj{<.m,zZ'$bU'\\t'A\\\\?cI;@?P8C_qX,~s_nK'\\x0b'VEOP|~5k'\\t'Sv9mp?Xf)x/""""c'\\n'6g\\\\aHK8GWa4Y>:@60#9LZ?[/AvMuy,k2H'\\t'f5D8='\\t'3s"))
(assert (str.in_re x (re.* (re.union (str.to_re "r4'M8\\\\kUBk.Cmo)K@ID&lKFS/") (str.to_re "{1l")))))
(check-sat)

(exit)
